(declare-const X String)
; \d+(/\d+)?
(assert (str.in_re X (re.++ (re.+ (re.range "0" "9")) (re.opt (re.++ (str.to_re "/") (re.+ (re.range "0" "9")))) (str.to_re "\u{a}"))))
; [^(\&)](\w*)+(\=)[\w\d ]*
(assert (not (str.in_re X (re.++ (re.union (str.to_re "(") (str.to_re "&") (str.to_re ")")) (re.+ (re.* (re.union (re.range "0" "9") (re.range "A" "Z") (re.range "a" "z") (str.to_re "_")))) (str.to_re "=") (re.* (re.union (re.range "0" "9") (str.to_re " ") (re.range "0" "9") (re.range "A" "Z") (re.range "a" "z") (str.to_re "_"))) (str.to_re "\u{a}")))))
; /^[1-9][0-9][0-9][0-9][0-9][0-9]$/
(assert (str.in_re X (re.++ (str.to_re "/") (re.range "1" "9") (re.range "0" "9") (re.range "0" "9") (re.range "0" "9") (re.range "0" "9") (re.range "0" "9") (str.to_re "/\u{a}"))))
; ^\s*[a-zA-Z,\s]+\s*$
(assert (str.in_re X (re.++ (re.* (re.union (str.to_re " ") (str.to_re "\u{9}") (str.to_re "\u{a}") (str.to_re "\u{c}") (str.to_re "\u{d}"))) (re.+ (re.union (re.range "a" "z") (re.range "A" "Z") (str.to_re ",") (str.to_re " ") (str.to_re "\u{9}") (str.to_re "\u{a}") (str.to_re "\u{c}") (str.to_re "\u{d}"))) (re.* (re.union (str.to_re " ") (str.to_re "\u{9}") (str.to_re "\u{a}") (str.to_re "\u{c}") (str.to_re "\u{d}"))) (str.to_re "\u{a}"))))
; HWAE.*wowokay\s%3fsearchresltX-Mailer\u{3A}isSubject\u{3a}
(assert (str.in_re X (re.++ (str.to_re "HWAE") (re.* re.allchar) (str.to_re "wowokay") (re.union (str.to_re " ") (str.to_re "\u{9}") (str.to_re "\u{a}") (str.to_re "\u{c}") (str.to_re "\u{d}")) (str.to_re "%3fsearchresltX-Mailer:\u{13}isSubject:\u{a}"))))
(check-sat)
